<number of tasks>
70

<cycle time>
185

<task times>
1 17
2 66
3 54
4 52
5 6
6 88
7 21
8 128
9 68
10 70
11 85
12 21
13 134
14 135
15 94
16 90
17 50
18 143
19 19
20 54
21 50
22 40
23 73
24 12
25 152
26 42
27 45
28 74
29 26
30 11
31 31
32 50
33 102
34 46
35 35
36 40
37 2
38 1
39 3
40 13
41 16
42 25
43 21
44 43
45 30
46 83
47 89
48 56
49 59
50 43
51 11
52 26
53 44
54 121
55 38
56 68
57 22
58 7
59 16
60 32
61 25
62 27
63 156
64 28
65 15
66 26
67 18
68 72
69 23
70 27

<precedence relations>
1,2
1,41
1,69
1,70
2,3
3,4
3,68
4,6
4,7
5,6
5,24
5,30
6,8
7,8
8,12
9,10
10,11
11,12
12,13
12,14
13,23
14,23
15,16
16,17
16,18
17,19
18,19
19,20
19,22
19,57
20,21
21,23
22,23
23,25
23,31
23,33
24,25
25,26
25,27
25,28
25,29
26,35
27,35
28,35
29,35
30,31
31,32
32,35
33,34
34,35
35,36
35,44
35,48
35,51
35,53
35,56
35,60
35,61
35,62
36,37
37,38
38,39
39,40
40,42
41,42
42,43
43,50
44,45
45,46
46,47
47,50
48,49
49,50
51,52
52,54
53,54
54,55
57,58
58,59
59,60
61,65
62,63
63,64
64,65
64,66
64,67

<setup times forward>
1,9:4
1,10:1
1,11:3
1,15:4
1,16:1
1,17:1
1,18:1
1,19:1
1,20:2
1,21:2
1,22:5
1,57:1
1,58:5
1,59:2
1,69:4
1,70:2
2,9:4
2,10:1
2,11:3
2,15:4
2,16:1
2,17:1
2,18:1
2,19:1
2,20:2
2,21:2
2,22:5
2,57:1
2,58:5
2,59:2
2,69:4
2,70:2
3,4:2
3,9:4
3,10:1
3,11:3
3,15:4
3,16:1
3,17:1
3,18:1
3,19:1
3,20:2
3,21:2
3,22:5
3,57:1
3,58:5
3,59:2
3,68:3
3,69:4
3,70:2
4,5:2
4,9:6
4,10:3
4,11:1
4,15:6
4,16:3
4,17:3
4,18:1
4,19:1
4,22:3
4,24:2
4,30:2
4,41:2
4,57:1
4,58:3
4,59:4
4,68:1
4,69:6
4,70:4
5,4:2
5,6:2
5,7:2
5,9:4
5,10:1
5,11:3
5,15:4
5,16:1
5,17:1
5,18:1
5,19:1
5,20:2
5,21:2
5,22:5
5,57:1
5,58:5
5,59:2
5,68:3
5,69:4
5,70:2
6,8:3
6,9:6
6,10:3
6,11:1
6,15:6
6,16:3
6,17:3
6,18:1
6,19:1
6,22:3
6,24:2
6,30:2
6,41:2
6,57:1
6,58:3
6,59:4
6,68:1
6,69:6
6,70:4
7,5:2
7,8:3
7,9:6
7,10:3
7,11:1
7,15:6
7,16:3
7,17:3
7,18:1
7,19:1
7,22:3
7,24:2
7,30:2
7,41:2
7,57:1
7,58:3
7,59:4
7,68:1
7,69:6
7,70:4
8,9:3
8,11:4
8,12:4
8,15:3
8,18:2
8,19:2
8,20:3
8,21:3
8,22:6
8,24:1
8,30:1
8,41:1
8,57:2
8,58:6
8,59:1
8,68:4
8,69:3
8,70:1
9,1:4
9,2:4
9,3:4
9,4:6
9,5:4
9,6:6
9,7:6
9,8:3
9,10:3
9,16:3
9,17:3
9,18:5
9,19:5
9,20:6
9,21:6
9,22:9
9,24:4
9,30:4
9,41:4
9,57:5
9,58:9
9,59:2
9,68:7
9,70:2
10,1:1
10,2:1
10,3:1
10,4:3
10,5:1
10,6:3
10,7:3
10,11:4
10,15:3
10,18:2
10,19:2
10,20:3
10,21:3
10,22:6
10,24:1
10,30:1
10,41:1
10,57:2
10,58:6
10,59:1
10,68:4
10,69:3
10,70:1
11,1:3
11,2:3
11,3:3
11,4:1
11,5:3
11,6:1
11,7:1
11,8:4
11,15:7
11,16:4
11,17:4
11,18:2
11,19:2
11,20:1
11,21:1
11,22:2
11,24:3
11,30:3
11,41:3
11,57:2
11,58:2
11,59:5
11,69:7
11,70:5
12,13:5
12,14:2
12,15:7
12,16:4
12,17:4
12,18:2
12,19:2
12,20:1
12,21:1
12,22:2
12,24:3
12,30:3
12,41:3
12,57:2
12,58:2
12,59:5
12,69:7
12,70:5
13,14:7
13,15:2
13,16:1
13,17:1
13,18:3
13,19:3
13,20:4
13,21:4
13,22:7
13,23:4
13,24:2
13,30:2
13,41:2
13,57:3
13,58:7
13,68:5
13,69:2
14,13:7
14,15:9
14,16:6
14,17:6
14,18:4
14,19:4
14,20:3
14,21:3
14,23:3
14,24:5
14,30:5
14,41:5
14,57:4
14,59:7
14,68:2
14,69:9
14,70:7
15,1:4
15,2:4
15,3:4
15,4:6
15,5:4
15,6:6
15,7:6
15,8:3
15,10:3
15,11:7
15,12:7
15,13:2
15,14:9
15,16:3
15,24:4
15,30:4
15,41:4
15,68:7
15,70:2
16,1:1
16,2:1
16,3:1
16,4:3
16,5:1
16,6:3
16,7:3
16,9:3
16,11:4
16,12:4
16,13:1
16,14:6
16,18:2
16,24:1
16,30:1
16,41:1
16,68:4
16,69:3
16,70:1
17,1:1
17,2:1
17,3:1
17,4:3
17,5:1
17,6:3
17,7:3
17,9:3
17,11:4
17,12:4
17,13:1
17,14:6
17,18:2
17,19:2
17,24:1
17,30:1
17,41:1
17,68:4
17,69:3
17,70:1
18,1:1
18,2:1
18,3:1
18,4:1
18,5:1
18,6:1
18,7:1
18,8:2
18,9:5
18,10:2
18,11:2
18,12:2
18,13:3
18,14:4
18,17:2
18,24:1
18,30:1
18,41:1
18,68:2
18,69:5
18,70:3
19,1:1
19,2:1
19,3:1
19,4:1
19,5:1
19,6:1
19,7:1
19,8:2
19,9:5
19,10:2
19,11:2
19,12:2
19,13:3
19,14:4
19,20:1
19,22:4
19,24:1
19,30:1
19,41:1
19,68:2
19,69:5
19,70:3
20,1:2
20,2:2
20,3:2
20,5:2
20,8:3
20,9:6
20,10:3
20,11:1
20,12:1
20,13:4
20,14:3
20,22:3
20,24:2
20,30:2
20,41:2
20,57:1
20,58:3
20,59:4
20,68:1
20,69:6
20,70:4
21,1:2
21,2:2
21,3:2
21,5:2
21,8:3
21,9:6
21,10:3
21,11:1
21,12:1
21,13:4
21,14:3
21,22:3
21,24:2
21,30:2
21,41:2
21,57:1
21,58:3
21,59:4
21,68:1
21,69:6
21,70:4
22,1:5
22,2:5
22,3:5
22,4:3
22,5:5
22,6:3
22,7:3
22,8:6
22,9:9
22,10:6
22,11:2
22,12:2
22,13:7
22,20:3
22,21:3
22,23:3
22,24:5
22,30:5
22,41:5
22,57:4
22,59:7
22,68:2
22,69:9
22,70:7
23,24:2
23,25:4
23,30:2
23,31:4
23,33:1
23,41:2
23,57:1
23,58:3
23,59:4
23,68:1
23,69:6
23,70:4
24,4:2
24,6:2
24,7:2
24,8:1
24,9:4
24,10:1
24,11:3
24,12:3
24,13:2
24,14:5
24,15:4
24,16:1
24,17:1
24,18:1
24,19:1
24,20:2
24,21:2
24,22:5
24,23:2
24,25:6
24,31:6
24,32:1
24,33:1
24,34:1
24,57:1
24,58:5
24,59:2
24,68:3
24,69:4
24,70:2
25,26:7
25,27:7
25,28:5
25,29:9
25,30:6
25,32:7
25,33:5
25,34:7
25,41:6
25,57:5
25,58:1
25,59:8
25,68:3
25,69:10
25,70:8
26,28:2
26,29:2
26,30:1
26,31:7
26,33:2
26,35:2
26,41:1
26,57:2
26,58:6
26,59:1
26,68:4
26,69:3
26,70:1
27,28:2
27,29:2
27,30:1
27,31:7
27,33:2
27,35:2
27,41:1
27,57:2
27,58:6
27,59:1
27,68:4
27,69:3
27,70:1
28,26:2
28,27:2
28,29:4
28,30:1
28,31:5
28,32:2
28,34:2
28,35:4
28,41:1
28,58:4
28,59:3
28,68:2
28,69:5
28,70:3
29,26:2
29,27:2
29,28:4
29,30:3
29,31:9
29,32:2
29,33:4
29,34:2
29,41:3
29,57:4
29,58:8
29,59:1
29,68:6
29,69:1
29,70:1
30,4:2
30,6:2
30,7:2
30,8:1
30,9:4
30,10:1
30,11:3
30,12:3
30,13:2
30,14:5
30,15:4
30,16:1
30,17:1
30,18:1
30,19:1
30,20:2
30,21:2
30,22:5
30,23:2
30,25:6
30,26:1
30,27:1
30,28:1
30,29:3
30,31:6
30,33:1
30,34:1
30,57:1
30,58:5
30,59:2
30,68:3
30,69:4
30,70:2
31,24:6
31,26:7
31,27:7
31,28:5
31,29:9
31,32:7
31,33:5
31,34:7
31,41:6
31,57:5
31,58:1
31,59:8
31,68:3
31,69:10
31,70:8
32,24:1
32,25:7
32,28:2
32,29:2
32,33:2
32,35:2
32,41:1
32,57:2
32,58:6
32,59:1
32,68:4
32,69:3
32,70:1
33,24:1
33,25:5
33,26:2
33,27:2
33,29:4
33,30:1
33,31:5
33,32:2
33,34:2
33,41:1
33,58:4
33,59:3
33,68:2
33,69:5
33,70:3
34,24:1
34,25:7
34,28:2
34,29:2
34,30:1
34,31:7
34,35:2
34,41:1
34,57:2
34,58:6
34,59:1
34,68:4
34,69:3
34,70:1
35,36:2
35,41:3
35,48:9
35,53:9
35,56:5
35,57:4
35,58:8
35,59:1
35,60:2
35,61:2
35,68:6
35,69:1
35,70:1
36,41:1
36,44:2
36,45:2
36,46:7
36,47:3
36,48:7
36,49:3
36,51:2
36,52:8
36,53:7
36,54:3
36,55:2
36,56:3
36,57:2
36,58:6
36,59:1
36,62:2
36,63:8
36,64:3
36,65:2
36,66:2
36,68:4
36,69:3
36,70:1
37,38:2
37,41:1
37,44:2
37,45:2
37,46:7
37,47:3
37,48:7
37,49:3
37,51:2
37,52:8
37,53:7
37,54:3
37,55:2
37,56:3
37,57:2
37,58:6
37,59:1
37,62:2
37,63:8
37,64:3
37,65:2
37,66:2
37,68:4
37,69:3
37,70:1
38,41:3
38,46:9
38,47:5
38,48:9
38,49:1
38,52:10
38,53:9
38,54:1
38,56:5
38,57:4
38,58:8
38,59:1
38,60:2
38,61:2
38,63:10
38,64:5
38,67:2
38,68:6
38,69:1
38,70:1
39,41:3
39,46:9
39,47:5
39,48:9
39,49:1
39,52:10
39,53:9
39,54:1
39,56:5
39,57:4
39,58:8
39,59:1
39,60:2
39,61:2
39,63:10
39,64:5
39,67:2
39,68:6
39,69:1
39,70:1
40,41:3
40,46:9
40,47:5
40,48:9
40,49:1
40,52:10
40,53:9
40,54:1
40,56:5
40,57:4
40,58:8
40,59:1
40,60:2
40,61:2
40,63:10
40,64:5
40,67:2
40,68:6
40,69:1
40,70:1
41,4:2
41,6:2
41,7:2
41,8:1
41,9:4
41,10:1
41,11:3
41,12:3
41,13:2
41,14:5
41,15:4
41,16:1
41,17:1
41,18:1
41,19:1
41,20:2
41,21:2
41,22:5
41,23:2
41,25:6
41,26:1
41,27:1
41,28:1
41,29:3
41,31:6
41,32:1
41,33:1
41,34:1
41,35:3
41,36:1
41,37:1
41,38:3
41,39:3
41,40:3
41,42:3
41,44:3
41,45:3
41,46:6
41,47:2
41,48:6
41,49:4
41,51:3
41,52:7
41,53:6
41,54:4
41,55:3
41,56:2
41,57:1
41,58:5
41,59:2
41,60:1
41,61:1
41,62:3
41,63:7
41,64:2
41,65:3
41,66:3
41,67:1
41,68:3
41,69:4
41,70:2
42,46:9
42,47:5
42,48:9
42,49:1
42,52:10
42,53:9
42,54:1
42,56:5
42,57:4
42,58:8
42,59:1
42,60:2
42,61:2
42,63:10
42,64:5
42,67:2
42,68:6
42,69:1
42,70:1
43,46:9
43,47:5
43,48:9
43,49:1
43,52:10
43,53:9
43,54:1
43,56:5
43,57:4
43,58:8
43,59:1
43,60:2
43,61:2
43,63:10
43,64:5
43,67:2
43,68:6
43,69:1
43,70:1
44,36:2
44,37:2
44,41:3
44,48:9
44,49:1
44,52:10
44,53:9
44,54:1
44,56:5
44,57:4
44,58:8
44,59:1
44,60:2
44,61:2
44,63:10
44,64:5
44,67:2
44,68:6
44,69:1
44,70:1
45,36:2
45,37:2
45,41:3
45,46:9
45,48:9
45,49:1
45,52:10
45,53:9
45,54:1
45,56:5
45,57:4
45,58:8
45,59:1
45,60:2
45,61:2
45,63:10
45,64:5
45,67:2
45,68:6
45,69:1
45,70:1
46,36:7
46,37:7
46,38:9
46,39:9
46,40:9
46,41:6
46,42:9
46,43:9
46,47:4
46,49:10
46,51:9
46,52:1
46,54:10
46,55:9
46,56:4
46,57:5
46,58:1
46,59:8
46,60:7
46,61:7
46,62:9
46,63:1
46,64:4
46,65:9
46,66:9
46,67:7
46,68:3
46,69:10
46,70:8
47,36:3
47,37:3
47,38:5
47,39:5
47,40:5
47,41:2
47,42:5
47,43:5
47,48:4
47,49:6
47,50:5
47,51:5
47,52:5
47,53:4
47,54:6
47,55:5
47,57:1
47,58:3
47,59:4
47,60:3
47,61:3
47,62:5
47,63:5
47,65:5
47,66:5
47,67:3
47,68:1
47,69:6
47,70:4
48,36:7
48,37:7
48,38:9
48,39:9
48,40:9
48,41:6
48,42:9
48,43:9
48,44:9
48,45:9
48,47:4
48,49:10
48,51:9
48,52:1
48,54:10
48,55:9
48,56:4
48,57:5
48,58:1
48,59:8
48,60:7
48,61:7
48,62:9
48,63:1
48,64:4
48,65:9
48,66:9
48,67:7
48,68:3
48,69:10
48,70:8
49,36:3
49,37:3
49,38:1
49,39:1
49,40:1
49,41:4
49,42:1
49,43:1
49,44:1
49,45:1
49,46:10
49,47:6
49,50:1
49,51:1
49,52:11
49,53:10
49,55:1
49,56:6
49,57:5
49,58:9
49,59:2
49,60:3
49,61:3
49,62:1
49,63:11
49,64:6
49,65:1
49,66:1
49,67:3
49,68:7
49,70:2
50,52:10
50,53:9
50,54:1
50,56:5
50,57:4
50,58:8
50,59:1
50,60:2
50,61:2
50,63:10
50,64:5
50,67:2
50,68:6
50,69:1
50,70:1
51,36:2
51,37:2
51,41:3
51,46:9
51,47:5
51,48:9
51,49:1
51,52:10
51,53:9
51,56:5
51,57:4
51,58:8
51,59:1
51,60:2
51,61:2
51,63:10
51,64:5
51,67:2
51,68:6
51,69:1
51,70:1
52,36:8
52,37:8
52,38:10
52,39:10
52,40:10
52,41:7
52,42:10
52,43:10
52,44:10
52,45:10
52,46:1
52,47:5
52,48:1
52,49:11
52,50:10
52,53:1
52,54:11
52,56:5
52,57:6
52,58:2
52,59:9
52,60:8
52,61:8
52,62:10
52,64:5
52,65:10
52,66:10
52,67:8
52,68:4
52,69:11
52,70:9
53,36:7
53,37:7
53,38:9
53,39:9
53,40:9
53,41:6
53,42:9
53,43:9
53,44:9
53,45:9
53,47:4
53,49:10
53,50:9
53,51:9
53,52:1
53,54:10
53,56:4
53,57:5
53,58:1
53,59:8
53,60:7
53,61:7
53,62:9
53,63:1
53,64:4
53,65:9
53,66:9
53,67:7
53,68:3
53,69:10
53,70:8
54,36:3
54,37:3
54,38:1
54,39:1
54,40:1
54,41:4
54,42:1
54,43:1
54,44:1
54,45:1
54,46:10
54,47:6
54,48:10
54,50:1
54,55:1
54,56:6
54,57:5
54,58:9
54,59:2
54,60:3
54,61:3
54,62:1
54,63:11
54,64:6
54,65:1
54,66:1
54,67:3
54,68:7
54,70:2
55,36:2
55,37:2
55,41:3
55,46:9
55,47:5
55,48:9
55,49:1
55,56:5
55,57:4
55,58:8
55,59:1
55,60:2
55,61:2
55,63:10
55,64:5
55,67:2
55,68:6
55,69:1
55,70:1
56,36:3
56,37:3
56,38:5
56,39:5
56,40:5
56,41:2
56,42:5
56,43:5
56,44:5
56,45:5
56,46:4
56,48:4
56,49:6
56,50:5
56,51:5
56,52:5
56,53:4
56,54:6
56,55:5
56,57:1
56,58:3
56,59:4
56,60:3
56,61:3
56,62:5
56,63:5
56,65:5
56,66:5
56,67:3
56,68:1
56,69:6
56,70:4
57,1:1
57,2:1
57,3:1
57,4:1
57,5:1
57,6:1
57,7:1
57,8:2
57,9:5
57,10:2
57,11:2
57,12:2
57,13:3
57,14:4
57,20:1
57,21:1
57,22:4
57,23:1
57,24:1
57,25:5
57,26:2
57,27:2
57,29:4
57,30:1
57,31:5
57,32:2
57,34:2
57,35:4
57,36:2
57,37:2
57,38:4
57,39:4
57,40:4
57,41:1
57,42:4
57,43:4
57,44:4
57,45:4
57,46:5
57,47:1
57,48:5
57,49:5
57,50:4
57,51:4
57,52:6
57,53:5
57,54:5
57,55:4
57,56:1
57,58:4
57,61:2
57,62:4
57,63:6
57,64:1
57,65:4
57,66:4
57,67:2
57,68:2
57,69:5
57,70:3
58,1:5
58,2:5
58,3:5
58,4:3
58,5:5
58,6:3
58,7:3
58,8:6
58,9:9
58,10:6
58,11:2
58,12:2
58,13:7
58,20:3
58,21:3
58,23:3
58,24:5
58,25:1
58,26:6
58,27:6
58,28:4
58,29:8
58,30:5
58,31:1
58,32:6
58,33:4
58,34:6
58,35:8
58,36:6
58,37:6
58,38:8
58,39:8
58,40:8
58,41:5
58,42:8
58,43:8
58,44:8
58,45:8
58,46:1
58,47:3
58,48:1
58,49:9
58,50:8
58,51:8
58,52:2
58,53:1
58,54:9
58,55:8
58,56:3
58,59:7
58,61:6
58,62:8
58,63:2
58,64:3
58,65:8
58,66:8
58,67:6
58,68:2
58,69:9
58,70:7
59,1:2
59,2:2
59,3:2
59,4:4
59,5:2
59,6:4
59,7:4
59,8:1
59,9:2
59,10:1
59,11:5
59,12:5
59,14:7
59,20:4
59,21:4
59,22:7
59,23:4
59,24:2
59,25:8
59,26:1
59,27:1
59,28:3
59,29:1
59,30:2
59,31:8
59,32:1
59,33:3
59,34:1
59,35:1
59,36:1
59,37:1
59,38:1
59,39:1
59,40:1
59,41:2
59,42:1
59,43:1
59,44:1
59,45:1
59,46:8
59,47:4
59,48:8
59,49:2
59,50:1
59,51:1
59,52:9
59,53:8
59,54:2
59,55:1
59,56:4
59,60:1
59,61:1
59,62:1
59,63:9
59,64:4
59,65:1
59,66:1
59,67:1
59,68:5
59,69:2
60,38:2
60,39:2
60,40:2
60,41:1
60,42:2
60,43:2
60,44:2
60,45:2
60,46:7
60,47:3
60,48:7
60,49:3
60,50:2
60,51:2
60,52:8
60,53:7
60,54:3
60,55:2
60,56:3
60,62:2
60,63:8
60,64:3
60,65:2
60,66:2
60,68:4
60,69:3
60,70:1
61,38:2
61,39:2
61,40:2
61,41:1
61,42:2
61,43:2
61,44:2
61,45:2
61,46:7
61,47:3
61,48:7
61,49:3
61,50:2
61,51:2
61,52:8
61,53:7
61,54:3
61,55:2
61,56:3
61,57:2
61,58:6
61,59:1
61,62:2
61,63:8
61,64:3
61,65:2
61,66:2
61,68:4
61,69:3
61,70:1
62,36:2
62,37:2
62,41:3
62,46:9
62,47:5
62,48:9
62,49:1
62,52:10
62,53:9
62,54:1
62,56:5
62,57:4
62,58:8
62,59:1
62,60:2
62,61:2
62,63:10
62,68:6
62,69:1
62,70:1
63,36:8
63,37:8
63,38:10
63,39:10
63,40:10
63,41:7
63,42:10
63,43:10
63,44:10
63,45:10
63,46:1
63,47:5
63,48:1
63,49:11
63,50:10
63,51:10
63,53:1
63,54:11
63,55:10
63,56:5
63,57:6
63,58:2
63,59:9
63,60:8
63,61:8
63,64:5
63,68:4
63,69:11
63,70:9
64,36:3
64,37:3
64,38:5
64,39:5
64,40:5
64,41:2
64,42:5
64,43:5
64,44:5
64,45:5
64,46:4
64,48:4
64,49:6
64,50:5
64,51:5
64,52:5
64,53:4
64,54:6
64,55:5
64,57:1
64,58:3
64,59:4
64,60:3
64,61:3
64,65:5
64,66:5
64,67:3
64,68:1
64,69:6
64,70:4
65,36:2
65,37:2
65,41:3
65,46:9
65,47:5
65,48:9
65,49:1
65,52:10
65,53:9
65,54:1
65,56:5
65,57:4
65,58:8
65,59:1
65,60:2
65,67:2
65,68:6
65,69:1
65,70:1
66,36:2
66,37:2
66,41:3
66,46:9
66,47:5
66,48:9
66,49:1
66,52:10
66,53:9
66,54:1
66,56:5
66,57:4
66,58:8
66,59:1
66,60:2
66,61:2
66,67:2
66,68:6
66,69:1
66,70:1
67,38:2
67,39:2
67,40:2
67,41:1
67,42:2
67,43:2
67,44:2
67,45:2
67,46:7
67,47:3
67,48:7
67,49:3
67,50:2
67,51:2
67,52:8
67,53:7
67,54:3
67,55:2
67,56:3
67,57:2
67,58:6
67,59:1
67,65:2
67,66:2
67,68:4
67,69:3
67,70:1
68,4:1
68,5:3
68,6:1
68,7:1
68,8:4
68,9:7
68,10:4
68,13:5
68,14:2
68,15:7
68,16:4
68,17:4
68,18:2
68,19:2
68,20:1
68,21:1
68,22:2
68,23:1
68,24:3
68,25:3
68,26:4
68,27:4
68,28:2
68,29:6
68,30:3
68,31:3
68,32:4
68,33:2
68,34:4
68,35:6
68,36:4
68,37:4
68,38:6
68,39:6
68,40:6
68,41:3
68,42:6
68,43:6
68,44:6
68,45:6
68,46:3
68,47:1
68,48:3
68,49:7
68,50:6
68,51:6
68,52:4
68,53:3
68,54:7
68,55:6
68,56:1
68,57:2
68,58:2
68,59:5
68,60:4
68,61:4
68,62:6
68,63:4
68,64:1
68,65:6
68,66:6
68,67:4
68,69:7
68,70:5
69,2:4
69,3:4
69,4:6
69,5:4
69,6:6
69,7:6
69,8:3
69,10:3
69,11:7
69,12:7
69,13:2
69,14:9
69,16:3
69,17:3
69,18:5
69,19:5
69,20:6
69,21:6
69,22:9
69,23:6
69,24:4
69,25:10
69,26:3
69,27:3
69,28:5
69,29:1
69,30:4
69,31:10
69,32:3
69,33:5
69,34:3
69,35:1
69,36:3
69,37:3
69,38:1
69,39:1
69,40:1
69,41:4
69,42:1
69,43:1
69,44:1
69,45:1
69,46:10
69,47:6
69,48:10
69,50:1
69,51:1
69,52:11
69,53:10
69,55:1
69,56:6
69,57:5
69,58:9
69,59:2
69,60:3
69,61:3
69,62:1
69,63:11
69,64:6
69,65:1
69,66:1
69,67:3
69,68:7
69,70:2
70,2:2
70,3:2
70,4:4
70,5:2
70,6:4
70,7:4
70,8:1
70,9:2
70,10:1
70,11:5
70,12:5
70,14:7
70,15:2
70,16:1
70,17:1
70,18:3
70,19:3
70,20:4
70,21:4
70,22:7
70,23:4
70,24:2
70,25:8
70,26:1
70,27:1
70,28:3
70,29:1
70,30:2
70,31:8
70,32:1
70,33:3
70,34:1
70,35:1
70,36:1
70,37:1
70,38:1
70,39:1
70,40:1
70,41:2
70,42:1
70,43:1
70,44:1
70,45:1
70,46:8
70,47:4
70,48:8
70,49:2
70,50:1
70,51:1
70,52:9
70,53:8
70,54:2
70,55:1
70,56:4
70,57:3
70,58:7
70,60:1
70,61:1
70,62:1
70,63:9
70,64:4
70,65:1
70,66:1
70,67:1
70,68:5
70,69:2

<setup times backward>
1,11:3
1,18:1
1,19:1
1,20:2
1,21:2
1,22:5
1,57:1
1,58:5
2,11:3
2,18:1
2,19:1
2,20:2
2,21:2
2,22:5
2,57:1
2,58:5
3,11:3
3,18:1
3,19:1
3,20:2
3,21:2
3,22:5
3,57:1
3,58:5
4,11:1
4,22:3
4,58:3
4,68:1
5,4:2
5,7:2
5,11:3
5,18:1
5,19:1
5,20:2
5,21:2
5,22:5
5,57:1
5,58:5
5,68:3
6,11:1
6,22:3
6,58:3
6,68:1
7,11:1
7,22:3
7,58:3
7,68:1
8,1:1
8,2:1
8,3:1
8,4:3
8,5:1
8,6:3
8,7:3
8,11:4
8,18:2
8,19:2
8,20:3
8,21:3
8,22:6
8,24:1
8,30:1
8,41:1
8,57:2
8,58:6
8,68:4
9,1:4
9,2:4
9,3:4
9,4:6
9,5:4
9,6:6
9,7:6
9,8:3
9,16:3
9,17:3
9,18:5
9,19:5
9,20:6
9,21:6
9,22:9
9,24:4
9,30:4
9,41:4
9,57:5
9,58:9
9,59:2
9,68:7
9,70:2
10,1:1
10,2:1
10,3:1
10,4:3
10,5:1
10,6:3
10,7:3
10,18:2
10,19:2
10,20:3
10,21:3
10,22:6
10,24:1
10,30:1
10,41:1
10,57:2
10,58:6
10,68:4
11,22:2
11,58:2
12,22:2
12,58:2
13,1:2
13,2:2
13,3:2
13,4:4
13,5:2
13,6:4
13,7:4
13,8:1
13,10:1
13,11:5
13,12:5
13,14:7
13,16:1
13,17:1
13,18:3
13,19:3
13,20:4
13,21:4
13,22:7
13,24:2
13,30:2
13,41:2
13,57:3
13,58:7
13,68:5
15,1:4
15,2:4
15,3:4
15,4:6
15,5:4
15,6:6
15,7:6
15,8:3
15,10:3
15,11:7
15,12:7
15,13:2
15,14:9
15,24:4
15,30:4
15,41:4
15,68:7
15,70:2
16,1:1
16,2:1
16,3:1
16,4:3
16,5:1
16,6:3
16,7:3
16,11:4
16,12:4
16,14:6
16,24:1
16,30:1
16,41:1
16,68:4
17,1:1
17,2:1
17,3:1
17,4:3
17,5:1
17,6:3
17,7:3
17,11:4
17,12:4
17,14:6
17,18:2
17,24:1
17,30:1
17,41:1
17,68:4
18,4:1
18,6:1
18,7:1
18,11:2
18,12:2
18,14:4
18,68:2
19,4:1
19,6:1
19,7:1
19,11:2
19,12:2
19,14:4
19,68:2
20,11:1
20,12:1
20,14:3
20,22:3
20,58:3
20,68:1
21,11:1
21,12:1
21,14:3
21,22:3
21,58:3
21,68:1
23,11:1
23,12:1
23,14:3
23,22:3
23,58:3
23,68:1
24,4:2
24,6:2
24,7:2
24,11:3
24,12:3
24,14:5
24,18:1
24,19:1
24,20:2
24,21:2
24,22:5
24,23:2
24,31:6
24,33:1
24,57:1
24,58:5
24,68:3
26,1:1
26,2:1
26,3:1
26,4:3
26,5:1
26,6:3
26,7:3
26,11:4
26,12:4
26,14:6
26,18:2
26,19:2
26,20:3
26,21:3
26,22:6
26,23:3
26,24:1
26,25:7
26,28:2
26,30:1
26,31:7
26,33:2
26,41:1
26,57:2
26,58:6
26,68:4
27,1:1
27,2:1
27,3:1
27,4:3
27,5:1
27,6:3
27,7:3
27,11:4
27,12:4
27,14:6
27,18:2
27,19:2
27,20:3
27,21:3
27,22:6
27,23:3
27,24:1
27,25:7
27,28:2
27,30:1
27,31:7
27,33:2
27,41:1
27,57:2
27,58:6
27,68:4
28,4:1
28,6:1
28,7:1
28,11:2
28,12:2
28,14:4
28,20:1
28,21:1
28,22:4
28,23:1
28,25:5
28,31:5
28,58:4
28,68:2
29,1:3
29,2:3
29,3:3
29,4:5
29,5:3
29,6:5
29,7:5
29,8:2
29,10:2
29,11:6
29,12:6
29,13:1
29,14:8
29,16:2
29,17:2
29,18:4
29,19:4
29,20:5
29,21:5
29,22:8
29,23:5
29,24:3
29,25:9
29,26:2
29,27:2
29,28:4
29,30:3
29,31:9
29,32:2
29,33:4
29,34:2
29,41:3
29,57:4
29,58:8
29,59:1
29,68:6
29,70:1
30,4:2
30,6:2
30,7:2
30,11:3
30,12:3
30,14:5
30,18:1
30,19:1
30,20:2
30,21:2
30,22:5
30,23:2
30,25:6
30,28:1
30,33:1
30,57:1
30,58:5
30,68:3
32,1:1
32,2:1
32,3:1
32,4:3
32,5:1
32,6:3
32,7:3
32,11:4
32,12:4
32,14:6
32,18:2
32,19:2
32,20:3
32,21:3
32,22:6
32,23:3
32,24:1
32,25:7
32,28:2
32,30:1
32,31:7
32,33:2
32,41:1
32,57:2
32,58:6
32,68:4
33,4:1
33,6:1
33,7:1
33,11:2
33,12:2
33,14:4
33,20:1
33,21:1
33,22:4
33,23:1
33,25:5
33,31:5
33,58:4
33,68:2
34,1:1
34,2:1
34,3:1
34,4:3
34,5:1
34,6:3
34,7:3
34,11:4
34,12:4
34,14:6
34,18:2
34,19:2
34,20:3
34,21:3
34,22:6
34,23:3
34,24:1
34,25:7
34,28:2
34,30:1
34,31:7
34,33:2
34,41:1
34,57:2
34,58:6
34,68:4
35,1:3
35,2:3
35,3:3
35,4:5
35,5:3
35,6:5
35,7:5
35,8:2
35,10:2
35,11:6
35,12:6
35,13:1
35,14:8
35,16:2
35,17:2
35,18:4
35,19:4
35,20:5
35,21:5
35,22:8
35,23:5
35,24:3
35,25:9
35,26:2
35,27:2
35,28:4
35,30:3
35,31:9
35,32:2
35,33:4
35,34:2
35,41:3
35,57:4
35,58:8
35,59:1
35,68:6
35,70:1
36,1:1
36,2:1
36,3:1
36,4:3
36,5:1
36,6:3
36,7:3
36,11:4
36,12:4
36,14:6
36,18:2
36,19:2
36,20:3
36,21:3
36,22:6
36,23:3
36,24:1
36,25:7
36,28:2
36,30:1
36,31:7
36,33:2
36,41:1
36,46:7
36,47:3
36,48:7
36,52:8
36,53:7
36,56:3
36,57:2
36,58:6
36,63:8
36,64:3
36,68:4
37,1:1
37,2:1
37,3:1
37,4:3
37,5:1
37,6:3
37,7:3
37,11:4
37,12:4
37,14:6
37,18:2
37,19:2
37,20:3
37,21:3
37,22:6
37,23:3
37,24:1
37,25:7
37,28:2
37,30:1
37,31:7
37,33:2
37,41:1
37,46:7
37,47:3
37,48:7
37,52:8
37,53:7
37,56:3
37,57:2
37,58:6
37,63:8
37,64:3
37,68:4
38,1:3
38,2:3
38,3:3
38,4:5
38,5:3
38,6:5
38,7:5
38,8:2
38,10:2
38,11:6
38,12:6
38,13:1
38,14:8
38,16:2
38,17:2
38,18:4
38,19:4
38,20:5
38,21:5
38,22:8
38,23:5
38,24:3
38,25:9
38,26:2
38,27:2
38,28:4
38,30:3
38,31:9
38,32:2
38,33:4
38,34:2
38,36:2
38,37:2
38,41:3
38,46:9
38,47:5
38,48:9
38,52:10
38,53:9
38,56:5
38,57:4
38,58:8
38,59:1
38,60:2
38,61:2
38,63:10
38,64:5
38,67:2
38,68:6
38,70:1
39,1:3
39,2:3
39,3:3
39,4:5
39,5:3
39,6:5
39,7:5
39,8:2
39,10:2
39,11:6
39,12:6
39,13:1
39,14:8
39,16:2
39,17:2
39,18:4
39,19:4
39,20:5
39,21:5
39,22:8
39,23:5
39,24:3
39,25:9
39,26:2
39,27:2
39,28:4
39,30:3
39,31:9
39,32:2
39,33:4
39,34:2
39,36:2
39,37:2
39,41:3
39,46:9
39,47:5
39,48:9
39,52:10
39,53:9
39,56:5
39,57:4
39,58:8
39,59:1
39,60:2
39,61:2
39,63:10
39,64:5
39,67:2
39,68:6
39,70:1
40,1:3
40,2:3
40,3:3
40,4:5
40,5:3
40,6:5
40,7:5
40,8:2
40,10:2
40,11:6
40,12:6
40,13:1
40,14:8
40,16:2
40,17:2
40,18:4
40,19:4
40,20:5
40,21:5
40,22:8
40,23:5
40,24:3
40,25:9
40,26:2
40,27:2
40,28:4
40,30:3
40,31:9
40,32:2
40,33:4
40,34:2
40,36:2
40,37:2
40,41:3
40,46:9
40,47:5
40,48:9
40,52:10
40,53:9
40,56:5
40,57:4
40,58:8
40,59:1
40,60:2
40,61:2
40,63:10
40,64:5
40,67:2
40,68:6
40,70:1
41,4:2
41,6:2
41,7:2
41,11:3
41,12:3
41,14:5
41,18:1
41,19:1
41,20:2
41,21:2
41,22:5
41,23:2
41,25:6
41,28:1
41,31:6
41,33:1
41,46:6
41,47:2
41,48:6
41,52:7
41,53:6
41,56:2
41,57:1
41,58:5
41,63:7
41,64:2
41,68:3
42,1:3
42,2:3
42,3:3
42,4:5
42,5:3
42,6:5
42,7:5
42,8:2
42,10:2
42,11:6
42,12:6
42,13:1
42,14:8
42,16:2
42,17:2
42,18:4
42,19:4
42,20:5
42,21:5
42,22:8
42,23:5
42,24:3
42,25:9
42,26:2
42,27:2
42,28:4
42,30:3
42,31:9
42,32:2
42,33:4
42,34:2
42,36:2
42,37:2
42,41:3
42,46:9
42,47:5
42,48:9
42,52:10
42,53:9
42,56:5
42,57:4
42,58:8
42,59:1
42,60:2
42,61:2
42,63:10
42,64:5
42,67:2
42,68:6
42,70:1
43,1:3
43,2:3
43,3:3
43,4:5
43,5:3
43,6:5
43,7:5
43,8:2
43,10:2
43,11:6
43,12:6
43,13:1
43,14:8
43,16:2
43,17:2
43,18:4
43,19:4
43,20:5
43,21:5
43,22:8
43,23:5
43,24:3
43,25:9
43,26:2
43,27:2
43,28:4
43,30:3
43,31:9
43,32:2
43,33:4
43,34:2
43,36:2
43,37:2
43,41:3
43,46:9
43,47:5
43,48:9
43,52:10
43,53:9
43,56:5
43,57:4
43,58:8
43,59:1
43,60:2
43,61:2
43,63:10
43,64:5
43,67:2
43,68:6
43,70:1
44,1:3
44,2:3
44,3:3
44,4:5
44,5:3
44,6:5
44,7:5
44,8:2
44,10:2
44,11:6
44,12:6
44,13:1
44,14:8
44,16:2
44,17:2
44,18:4
44,19:4
44,20:5
44,21:5
44,22:8
44,23:5
44,24:3
44,25:9
44,26:2
44,27:2
44,28:4
44,30:3
44,31:9
44,32:2
44,33:4
44,34:2
44,36:2
44,37:2
44,41:3
44,48:9
44,52:10
44,53:9
44,56:5
44,57:4
44,58:8
44,59:1
44,60:2
44,61:2
44,63:10
44,64:5
44,67:2
44,68:6
44,70:1
45,1:3
45,2:3
45,3:3
45,4:5
45,5:3
45,6:5
45,7:5
45,8:2
45,10:2
45,11:6
45,12:6
45,13:1
45,14:8
45,16:2
45,17:2
45,18:4
45,19:4
45,20:5
45,21:5
45,22:8
45,23:5
45,24:3
45,25:9
45,26:2
45,27:2
45,28:4
45,30:3
45,31:9
45,32:2
45,33:4
45,34:2
45,36:2
45,37:2
45,41:3
45,48:9
45,52:10
45,53:9
45,56:5
45,57:4
45,58:8
45,59:1
45,60:2
45,61:2
45,63:10
45,64:5
45,67:2
45,68:6
45,70:1
46,52:1
46,63:1
47,11:1
47,12:1
47,14:3
47,22:3
47,25:4
47,31:4
47,46:4
47,48:4
47,52:5
47,53:4
47,58:3
47,63:5
47,68:1
48,52:1
48,63:1
49,1:4
49,2:4
49,3:4
49,4:6
49,5:4
49,6:6
49,7:6
49,8:3
49,10:3
49,11:7
49,12:7
49,13:2
49,14:9
49,16:3
49,17:3
49,18:5
49,19:5
49,20:6
49,21:6
49,22:9
49,23:6
49,24:4
49,25:10
49,26:3
49,27:3
49,28:5
49,29:1
49,30:4
49,31:10
49,32:3
49,33:5
49,34:3
49,35:1
49,36:3
49,37:3
49,38:1
49,39:1
49,40:1
49,41:4
49,42:1
49,43:1
49,44:1
49,45:1
49,46:10
49,47:6
49,48:10
49,51:1
49,52:11
49,53:10
49,55:1
49,56:6
49,57:5
49,58:9
49,59:2
49,60:3
49,61:3
49,62:1
49,63:11
49,64:6
49,65:1
49,66:1
49,67:3
49,68:7
49,70:2
50,1:3
50,2:3
50,3:3
50,4:5
50,5:3
50,6:5
50,7:5
50,8:2
50,10:2
50,11:6
50,12:6
50,13:1
50,14:8
50,16:2
50,17:2
50,18:4
50,19:4
50,20:5
50,21:5
50,22:8
50,23:5
50,24:3
50,25:9
50,26:2
50,27:2
50,28:4
50,30:3
50,31:9
50,32:2
50,33:4
50,34:2
50,36:2
50,37:2
50,41:3
50,46:9
50,47:5
50,48:9
50,52:10
50,53:9
50,56:5
50,57:4
50,58:8
50,59:1
50,60:2
50,61:2
50,63:10
50,64:5
50,67:2
50,68:6
50,70:1
51,1:3
51,2:3
51,3:3
51,4:5
51,5:3
51,6:5
51,7:5
51,8:2
51,10:2
51,11:6
51,12:6
51,13:1
51,14:8
51,16:2
51,17:2
51,18:4
51,19:4
51,20:5
51,21:5
51,22:8
51,23:5
51,24:3
51,25:9
51,26:2
51,27:2
51,28:4
51,30:3
51,31:9
51,32:2
51,33:4
51,34:2
51,36:2
51,37:2
51,41:3
51,46:9
51,47:5
51,48:9
51,53:9
51,56:5
51,57:4
51,58:8
51,59:1
51,60:2
51,61:2
51,63:10
51,64:5
51,67:2
51,68:6
51,70:1
53,52:1
53,63:1
54,1:4
54,2:4
54,3:4
54,4:6
54,5:4
54,6:6
54,7:6
54,8:3
54,10:3
54,11:7
54,12:7
54,13:2
54,14:9
54,16:3
54,17:3
54,18:5
54,19:5
54,20:6
54,21:6
54,22:9
54,23:6
54,24:4
54,25:10
54,26:3
54,27:3
54,28:5
54,29:1
54,30:4
54,31:10
54,32:3
54,33:5
54,34:3
54,35:1
54,36:3
54,37:3
54,38:1
54,39:1
54,40:1
54,41:4
54,42:1
54,43:1
54,44:1
54,45:1
54,46:10
54,47:6
54,48:10
54,50:1
54,51:1
54,52:11
54,53:10
54,56:6
54,57:5
54,58:9
54,59:2
54,60:3
54,61:3
54,62:1
54,63:11
54,64:6
54,65:1
54,66:1
54,67:3
54,68:7
54,70:2
55,1:3
55,2:3
55,3:3
55,4:5
55,5:3
55,6:5
55,7:5
55,8:2
55,10:2
55,11:6
55,12:6
55,13:1
55,14:8
55,16:2
55,17:2
55,18:4
55,19:4
55,20:5
55,21:5
55,22:8
55,23:5
55,24:3
55,25:9
55,26:2
55,27:2
55,28:4
55,30:3
55,31:9
55,32:2
55,33:4
55,34:2
55,36:2
55,37:2
55,41:3
55,46:9
55,47:5
55,48:9
55,52:10
55,53:9
55,56:5
55,57:4
55,58:8
55,59:1
55,60:2
55,61:2
55,63:10
55,64:5
55,67:2
55,68:6
55,70:1
56,11:1
56,12:1
56,14:3
56,22:3
56,25:4
56,31:4
56,46:4
56,48:4
56,52:5
56,53:4
56,58:3
56,63:5
56,68:1
57,4:1
57,6:1
57,7:1
57,11:2
57,12:2
57,14:4
57,20:1
57,21:1
57,22:4
57,23:1
57,25:5
57,31:5
57,46:5
57,47:1
57,48:5
57,52:6
57,53:5
57,56:1
57,63:6
57,64:1
57,68:2
58,25:1
58,31:1
58,46:1
58,48:1
58,52:2
58,53:1
58,63:2
59,1:2
59,2:2
59,3:2
59,4:4
59,5:2
59,6:4
59,7:4
59,8:1
59,10:1
59,11:5
59,12:5
59,14:7
59,16:1
59,17:1
59,18:3
59,19:3
59,20:4
59,21:4
59,22:7
59,23:4
59,24:2
59,25:8
59,26:1
59,27:1
59,28:3
59,30:2
59,31:8
59,32:1
59,33:3
59,34:1
59,36:1
59,37:1
59,41:2
59,46:8
59,47:4
59,48:8
59,52:9
59,53:8
59,56:4
59,57:3
59,58:7
59,61:1
59,63:9
59,64:4
59,67:1
59,68:5
60,1:1
60,2:1
60,3:1
60,4:3
60,5:1
60,6:3
60,7:3
60,11:4
60,12:4
60,14:6
60,18:2
60,19:2
60,20:3
60,21:3
60,22:6
60,23:3
60,24:1
60,25:7
60,28:2
60,30:1
60,31:7
60,33:2
60,41:1
60,46:7
60,47:3
60,48:7
60,52:8
60,53:7
60,56:3
60,57:2
60,58:6
60,63:8
60,64:3
60,68:4
61,1:1
61,2:1
61,3:1
61,4:3
61,5:1
61,6:3
61,7:3
61,11:4
61,12:4
61,14:6
61,18:2
61,19:2
61,20:3
61,21:3
61,22:6
61,23:3
61,24:1
61,25:7
61,28:2
61,30:1
61,31:7
61,33:2
61,41:1
61,46:7
61,47:3
61,48:7
61,52:8
61,53:7
61,56:3
61,57:2
61,58:6
61,63:8
61,64:3
61,68:4
62,1:3
62,2:3
62,3:3
62,4:5
62,5:3
62,6:5
62,7:5
62,8:2
62,10:2
62,11:6
62,12:6
62,13:1
62,14:8
62,16:2
62,17:2
62,18:4
62,19:4
62,20:5
62,21:5
62,22:8
62,23:5
62,24:3
62,25:9
62,26:2
62,27:2
62,28:4
62,30:3
62,31:9
62,32:2
62,33:4
62,34:2
62,36:2
62,37:2
62,41:3
62,46:9
62,47:5
62,48:9
62,52:10
62,53:9
62,56:5
62,57:4
62,58:8
62,59:1
62,60:2
62,61:2
62,68:6
62,70:1
64,11:1
64,12:1
64,14:3
64,22:3
64,25:4
64,31:4
64,46:4
64,48:4
64,52:5
64,53:4
64,58:3
64,63:5
64,68:1
65,1:3
65,2:3
65,3:3
65,4:5
65,5:3
65,6:5
65,7:5
65,8:2
65,10:2
65,11:6
65,12:6
65,13:1
65,14:8
65,16:2
65,17:2
65,18:4
65,19:4
65,20:5
65,21:5
65,22:8
65,23:5
65,24:3
65,25:9
65,26:2
65,27:2
65,28:4
65,30:3
65,31:9
65,32:2
65,33:4
65,34:2
65,36:2
65,37:2
65,41:3
65,46:9
65,47:5
65,48:9
65,52:10
65,53:9
65,56:5
65,57:4
65,58:8
65,59:1
65,60:2
65,61:2
65,63:10
65,64:5
65,67:2
65,68:6
65,70:1
66,1:3
66,2:3
66,3:3
66,4:5
66,5:3
66,6:5
66,7:5
66,8:2
66,10:2
66,11:6
66,12:6
66,13:1
66,14:8
66,16:2
66,17:2
66,18:4
66,19:4
66,20:5
66,21:5
66,22:8
66,23:5
66,24:3
66,25:9
66,26:2
66,27:2
66,28:4
66,30:3
66,31:9
66,32:2
66,33:4
66,34:2
66,36:2
66,37:2
66,41:3
66,46:9
66,47:5
66,48:9
66,52:10
66,53:9
66,56:5
66,57:4
66,58:8
66,59:1
66,60:2
66,61:2
66,63:10
66,64:5
66,67:2
66,68:6
66,70:1
67,1:1
67,2:1
67,3:1
67,4:3
67,5:1
67,6:3
67,7:3
67,11:4
67,12:4
67,14:6
67,18:2
67,19:2
67,20:3
67,21:3
67,22:6
67,23:3
67,24:1
67,25:7
67,28:2
67,30:1
67,31:7
67,33:2
67,41:1
67,46:7
67,47:3
67,48:7
67,52:8
67,53:7
67,56:3
67,57:2
67,58:6
67,63:8
67,64:3
67,68:4
68,14:2
68,22:2
68,25:3
68,31:3
68,46:3
68,48:3
68,52:4
68,53:3
68,58:2
68,63:4
69,1:4
69,2:4
69,3:4
69,4:6
69,5:4
69,6:6
69,7:6
69,8:3
69,10:3
69,11:7
69,12:7
69,13:2
69,14:9
69,16:3
69,17:3
69,18:5
69,19:5
69,20:6
69,21:6
69,22:9
69,23:6
69,24:4
69,25:10
69,26:3
69,27:3
69,28:5
69,29:1
69,30:4
69,31:10
69,32:3
69,33:5
69,34:3
69,35:1
69,36:3
69,37:3
69,38:1
69,39:1
69,40:1
69,41:4
69,42:1
69,43:1
69,44:1
69,45:1
69,46:10
69,47:6
69,48:10
69,50:1
69,51:1
69,52:11
69,53:10
69,55:1
69,56:6
69,57:5
69,58:9
69,59:2
69,60:3
69,61:3
69,62:1
69,63:11
69,64:6
69,65:1
69,66:1
69,67:3
69,68:7
69,70:2
70,1:2
70,2:2
70,3:2
70,4:4
70,5:2
70,6:4
70,7:4
70,8:1
70,10:1
70,11:5
70,12:5
70,14:7
70,16:1
70,17:1
70,18:3
70,19:3
70,20:4
70,21:4
70,22:7
70,23:4
70,24:2
70,25:8
70,26:1
70,27:1
70,28:3
70,30:2
70,31:8
70,32:1
70,33:3
70,34:1
70,36:1
70,37:1
70,41:2
70,46:8
70,47:4
70,48:8
70,52:9
70,53:8
70,56:4
70,57:3
70,58:7
70,60:1
70,61:1
70,63:9
70,64:4
70,67:1
70,68:5

<end>

<optimal SALBP-1 value>
20


<rand seed>
467321153

<Lower Bounds>
Lm1=19
Lms1=19
Lm2=9
Lm3=14
Lm4=19
Best=19

<Optimal Stations (Iterations: 10)>
24
